\ Model Passenger_Mix_Flow_RMP
\ LP format - for model browsing. Use MPS format to capture full model detail.
\ Signature: 0x5ded1f3cfd13ec79
Minimize
  41 t_0_0 + 99 t_0_94 + 113 t_0_95 + 101 t_0_96 + 106 t_0_97 + 82 t_0_98
   + 95 t_0_99 + 168 t_0_100 + 132 t_0_101 + 124 t_0_102 + 49 t_1_1
   + 118 t_1_103 + 112 t_1_104 + 130 t_1_105 + 65 t_2_2 + 134 t_2_106
   + 128 t_2_107 + 219 t_2_108 + 60 t_3_3 + 214 t_3_109 + 51 t_4_4
   + 95 t_4_110 + 149 t_4_111 + 139 t_4_112 + 182 t_4_113 + 132 t_4_114
   + 181 t_4_115 + 50 t_5_5 + 94 t_5_116 + 141 t_5_117 + 148 t_5_118
   + 123 t_5_119 + 181 t_5_120 + 51 t_6_6 + 114 t_6_121 + 205 t_6_122
   + 59 t_7_7 + 213 t_7_123 + 123 t_7_124 + 47 t_8_8 + 91 t_8_125
   + 145 t_8_126 + 135 t_8_127 + 178 t_8_128 + 128 t_8_129 + 177 t_8_130
   + 67 t_9_9 + 124 t_9_131 + 131 t_9_132 + 65 t_10_10 + 219 t_10_133
   + 54 t_11_11 + 117 t_11_134 + 208 t_11_135 + 48 t_12_12 + 117 t_12_136
   + 111 t_12_137 + 202 t_12_138 + 67 t_13_13 + 139 t_13_139 + 127 t_13_140
   + 108 t_13_141 + 121 t_13_142 + 194 t_13_143 + 158 t_13_144 + 68 t_14_14
   + 137 t_14_145 + 131 t_14_146 + 149 t_14_147 + 66 t_15_15 + 125 t_15_148
   + 120 t_15_149 + 134 t_15_150 + 134 t_15_151 + 157 t_15_152
   + 164 t_15_153 + 139 t_15_154 + 197 t_15_155 + 196 t_15_156 + 65 t_16_16
   + 112 t_16_157 + 126 t_16_158 + 134 t_16_159 + 128 t_16_160
   + 146 t_16_161 + 53 t_17_17 + 105 t_17_162 + 94 t_17_163 + 107 t_17_164
   + 110 t_17_165 + 117 t_17_166 + 67 t_18_18 + 75 t_19_19 + 134 t_19_167
   + 143 t_19_168 + 173 t_19_169 + 163 t_19_170 + 206 t_19_171
   + 156 t_19_172 + 205 t_19_173 + 51 t_20_20 + 103 t_20_174 + 92 t_20_175
   + 105 t_20_176 + 108 t_20_177 + 115 t_20_178 + 59 t_21_21 + 125 t_21_148
   + 134 t_21_167 + 128 t_21_189 + 125 t_21_196 + 158 t_21_210
   + 142 t_21_228 + 113 t_21_236 + 163 t_21_247 + 64 t_22_22 + 52 t_23_23
   + 105 t_23_162 + 103 t_23_174 + 41 t_24_24 + 94 t_24_163 + 92 t_24_175
   + 124 t_24_222 + 47 t_25_25 + 112 t_25_157 + 49 t_26_26 + 65 t_27_27
   + 124 t_27_179 + 148 t_27_223 + 54 t_28_28 + 120 t_28_149 + 120 t_28_197
   + 148 t_28_206 + 153 t_28_211 + 137 t_28_229 + 116 t_28_243
   + 158 t_28_248 + 54 t_29_29 + 107 t_29_164 + 105 t_29_176 + 68 t_30_30
   + 134 t_30_150 + 143 t_30_168 + 137 t_30_190 + 167 t_30_212
   + 151 t_30_230 + 122 t_30_237 + 172 t_30_249 + 64 t_31_31 + 123 t_31_180
   + 68 t_32_32 + 134 t_32_151 + 134 t_32_198 + 136 t_32_203 + 162 t_32_207
   + 152 t_32_221 + 130 t_32_244 + 172 t_32_250 + 67 t_33_33 + 126 t_33_181
   + 41 t_34_34 + 100 t_34_182 + 61 t_35_35 + 126 t_35_158 + 172 t_35_217
   + 137 t_35_255 + 58 t_36_36 + 99 t_36_94 + 72 t_37_37 + 113 t_37_95
   + 139 t_37_139 + 131 t_37_183 + 60 t_38_38 + 101 t_38_96 + 127 t_38_140
   + 119 t_38_184 + 44 t_39_39 + 127 t_39_224 + 65 t_40_40 + 106 t_40_97
   + 124 t_40_185 + 44 t_41_41 + 95 t_41_110 + 94 t_41_116 + 91 t_41_125
   + 113 t_41_191 + 143 t_41_213 + 127 t_41_231 + 98 t_41_238 + 69 t_42_42
   + 118 t_42_103 + 134 t_42_106 + 117 t_42_136 + 137 t_42_145
   + 134 t_42_159 + 180 t_42_218 + 145 t_42_256 + 56 t_43_43 + 41 t_44_44
   + 82 t_44_98 + 108 t_44_141 + 63 t_45_45 + 112 t_45_104 + 128 t_45_107
   + 114 t_45_121 + 117 t_45_134 + 111 t_45_137 + 131 t_45_146
   + 128 t_45_160 + 174 t_45_219 + 139 t_45_257 + 54 t_46_46 + 95 t_46_99
   + 121 t_46_142 + 127 t_47_47 + 168 t_47_100 + 194 t_47_143
   + 186 t_47_186 + 210 t_47_225 + 154 t_48_48 + 219 t_48_108
   + 214 t_48_109 + 205 t_48_122 + 213 t_48_123 + 219 t_48_133
   + 208 t_48_135 + 202 t_48_138 + 91 t_49_49 + 141 t_49_117 + 157 t_49_152
   + 157 t_49_199 + 159 t_49_204 + 185 t_49_208 + 153 t_49_245
   + 195 t_49_251 + 98 t_50_50 + 149 t_50_111 + 148 t_50_118 + 145 t_50_126
   + 164 t_50_153 + 173 t_50_169 + 164 t_50_200 + 181 t_50_232
   + 152 t_50_239 + 202 t_50_252 + 133 t_51_51 + 88 t_52_52 + 139 t_52_112
   + 135 t_52_127 + 163 t_52_170 + 157 t_52_192 + 187 t_52_214
   + 171 t_52_233 + 142 t_52_240 + 73 t_53_53 + 123 t_53_119 + 139 t_53_154
   + 139 t_53_201 + 141 t_53_205 + 167 t_53_209 + 135 t_53_246
   + 177 t_53_253 + 131 t_54_54 + 182 t_54_113 + 181 t_54_120
   + 178 t_54_128 + 197 t_54_155 + 206 t_54_171 + 200 t_54_193
   + 197 t_54_202 + 230 t_54_215 + 214 t_54_234 + 185 t_54_241
   + 235 t_54_254 + 91 t_55_55 + 132 t_55_101 + 158 t_55_144 + 150 t_55_187
   + 81 t_56_56 + 130 t_56_105 + 132 t_56_114 + 128 t_56_129 + 149 t_56_147
   + 146 t_56_161 + 156 t_56_172 + 150 t_56_194 + 192 t_56_220
   + 157 t_56_258 + 57 t_57_57 + 124 t_57_131 + 110 t_57_165 + 108 t_57_177
   + 140 t_57_226 + 83 t_58_58 + 124 t_58_102 + 142 t_58_188 + 130 t_59_59
   + 181 t_59_115 + 177 t_59_130 + 196 t_59_156 + 205 t_59_173
   + 199 t_59_195 + 229 t_59_216 + 213 t_59_235 + 184 t_59_242 + 64 t_60_60
   + 123 t_60_124 + 131 t_60_132 + 117 t_60_166 + 115 t_60_178
   + 147 t_60_227 + 59 t_61_61 + 124 t_61_179 + 123 t_61_180 + 126 t_61_181
   + 100 t_61_182 + 131 t_61_183 + 119 t_61_184 + 124 t_61_185
   + 186 t_61_186 + 150 t_61_187 + 142 t_61_188 + 69 t_62_62 + 128 t_62_189
   + 137 t_62_190 + 113 t_62_191 + 157 t_62_192 + 200 t_62_193
   + 150 t_62_194 + 199 t_62_195 + 60 t_63_63 + 66 t_64_64 + 125 t_64_196
   + 120 t_64_197 + 134 t_64_198 + 157 t_64_199 + 164 t_64_200
   + 139 t_64_201 + 197 t_64_202 + 68 t_65_65 + 136 t_65_203 + 159 t_65_204
   + 141 t_65_205 + 58 t_66_66 + 37 t_67_67 + 50 t_68_68 + 49 t_69_69
   + 52 t_70_70 + 53 t_71_71 + 60 t_72_72 + 120 t_73_73 + 94 t_74_74
   + 148 t_74_206 + 162 t_74_207 + 185 t_74_208 + 167 t_74_209 + 76 t_75_75
   + 99 t_76_76 + 158 t_76_210 + 153 t_76_211 + 167 t_76_212 + 143 t_76_213
   + 187 t_76_214 + 230 t_76_215 + 229 t_76_216 + 59 t_77_77 + 58 t_78_78
   + 64 t_79_79 + 51 t_80_80 + 53 t_81_81 + 49 t_82_82 + 58 t_83_83
   + 111 t_84_84 + 172 t_84_217 + 180 t_84_218 + 174 t_84_219
   + 192 t_84_220 + 84 t_85_85 + 152 t_85_221 + 83 t_86_86 + 124 t_86_222
   + 148 t_86_223 + 127 t_86_224 + 210 t_86_225 + 140 t_86_226
   + 147 t_86_227 + 110 t_87_87 + 59 t_88_88 + 83 t_89_89 + 142 t_89_228
   + 137 t_89_229 + 151 t_89_230 + 127 t_89_231 + 181 t_89_232
   + 171 t_89_233 + 214 t_89_234 + 213 t_89_235 + 54 t_90_90 + 113 t_90_236
   + 122 t_90_237 + 98 t_90_238 + 152 t_90_239 + 142 t_90_240
   + 185 t_90_241 + 184 t_90_242 + 62 t_91_91 + 116 t_91_243 + 130 t_91_244
   + 153 t_91_245 + 135 t_91_246 + 104 t_92_92 + 163 t_92_247
   + 158 t_92_248 + 172 t_92_249 + 172 t_92_250 + 195 t_92_251
   + 202 t_92_252 + 177 t_92_253 + 235 t_92_254 + 76 t_93_93 + 137 t_93_255
   + 145 t_93_256 + 139 t_93_257 + 157 t_93_258
Subject To
 cap_0: t_0_0 + t_0_94 + t_0_95 + t_0_96 + t_0_97 + t_0_98 + t_0_99
   + t_0_100 + t_0_101 + t_0_102 + t_0_259 >= 608
 cap_1: t_1_1 + t_1_103 + t_1_104 + t_1_105 + t_1_259 >= 19
 cap_2: t_2_2 + t_2_106 + t_2_107 + t_2_108 + t_2_259 >= 61
 cap_3: t_3_3 + t_3_109 + t_3_259 >= 38
 cap_4: t_4_4 + t_4_110 + t_4_111 + t_4_112 + t_4_113 + t_4_114 + t_4_115
   + t_4_259 >= 407
 cap_5: t_5_5 + t_5_116 + t_5_117 + t_5_118 + t_5_119 + t_5_120 + t_5_259
   >= 729
 cap_6: t_6_6 + t_6_121 + t_6_122 + t_6_259 >= 30
 cap_7: t_7_7 + t_7_123 + t_7_124 + t_7_259 >= 135
 cap_8: t_8_8 + t_8_125 + t_8_126 + t_8_127 + t_8_128 + t_8_129 + t_8_130
   + t_8_259 >= 498
 cap_9: t_9_9 + t_9_131 + t_9_132 + t_9_259 >= 118
 cap_10: t_10_10 + t_10_133 + t_10_259 >= 32
 cap_11: t_11_11 + t_11_134 + t_11_135 + t_11_259 >= 48
 cap_12: t_12_12 + t_12_136 + t_12_137 + t_12_138 + t_12_259 >= 0
 cap_13: t_13_13 + t_13_139 + t_13_140 + t_13_141 + t_13_142 + t_13_143
   + t_13_144 + t_13_259 >= 389
 cap_14: t_14_14 + t_14_145 + t_14_146 + t_14_147 + t_14_259 >= 88
 cap_15: t_15_15 + t_15_148 + t_15_149 + t_15_150 + t_15_151 + t_15_152
   + t_15_153 + t_15_154 + t_15_155 + t_15_156 + t_15_259 >= 677
 cap_16: t_16_16 + t_16_157 + t_16_158 + t_16_159 + t_16_160 + t_16_161
   + t_16_259 >= 542
 cap_17: t_17_17 + t_17_162 + t_17_163 + t_17_164 + t_17_165 + t_17_166
   + t_17_259 >= 42
 cap_18: t_18_18 + t_18_259 >= -13
 cap_19: t_19_19 + t_19_167 + t_19_168 + t_19_169 + t_19_170 + t_19_171
   + t_19_172 + t_19_173 + t_19_259 >= 463
 cap_20: t_20_20 + t_20_174 + t_20_175 + t_20_176 + t_20_177 + t_20_178
   + t_20_259 >= 253
 cap_21: t_21_21 + t_21_148 + t_21_167 + t_21_189 + t_21_196 + t_21_210
   + t_21_228 + t_21_236 + t_21_247 + t_21_259 >= 327
 cap_22: t_22_22 + t_22_259 >= 21
 cap_23: t_23_23 + t_23_162 + t_23_174 + t_23_259 >= 91
 cap_24: t_24_24 + t_24_163 + t_24_175 + t_24_222 + t_24_259 >= 298
 cap_25: t_25_25 + t_25_157 + t_25_259 >= 120
 cap_26: t_26_26 + t_26_259 >= 0
 cap_27: t_27_27 + t_27_179 + t_27_223 + t_27_259 >= 150
 cap_28: t_28_28 + t_28_149 + t_28_197 + t_28_206 + t_28_211 + t_28_229
   + t_28_243 + t_28_248 + t_28_259 >= 514
 cap_29: t_29_29 + t_29_164 + t_29_176 + t_29_259 >= 58
 cap_30: t_30_30 + t_30_150 + t_30_168 + t_30_190 + t_30_212 + t_30_230
   + t_30_237 + t_30_249 + t_30_259 >= 488
 cap_31: t_31_31 + t_31_180 + t_31_259 >= -35
 cap_32: t_32_32 + t_32_151 + t_32_198 + t_32_203 + t_32_207 + t_32_221
   + t_32_244 + t_32_250 + t_32_259 >= 547
 cap_33: t_33_33 + t_33_181 + t_33_259 >= -27
 cap_34: t_34_34 + t_34_182 + t_34_259 >= -11
 cap_35: t_35_35 + t_35_158 + t_35_217 + t_35_255 + t_35_259 >= 488
 cap_36: t_36_36 + t_36_94 + t_36_259 >= 171
 cap_37: t_37_37 + t_37_95 + t_37_139 + t_37_183 + t_37_259 >= 282
 cap_38: t_38_38 + t_38_96 + t_38_140 + t_38_184 + t_38_259 >= 140
 cap_39: t_39_39 + t_39_224 + t_39_259 >= 133
 cap_40: t_40_40 + t_40_97 + t_40_185 + t_40_259 >= 99
 cap_41: t_41_41 + t_41_110 + t_41_116 + t_41_125 + t_41_191 + t_41_213
   + t_41_231 + t_41_238 + t_41_259 >= 950
 cap_42: t_42_42 + t_42_103 + t_42_106 + t_42_136 + t_42_145 + t_42_159
   + t_42_218 + t_42_256 + t_42_259 >= 188
 cap_43: t_43_43 + t_43_259 >= -43
 cap_44: t_44_44 + t_44_98 + t_44_141 + t_44_259 >= 29
 cap_45: t_45_45 + t_45_104 + t_45_107 + t_45_121 + t_45_134 + t_45_137
   + t_45_146 + t_45_160 + t_45_219 + t_45_257 + t_45_259 >= 385
 cap_46: t_46_46 + t_46_99 + t_46_142 + t_46_259 >= 43
 cap_47: t_47_47 + t_47_100 + t_47_143 + t_47_186 + t_47_225 + t_47_259
   >= 328
 cap_48: t_48_48 + t_48_108 + t_48_109 + t_48_122 + t_48_123 + t_48_133
   + t_48_135 + t_48_138 + t_48_259 >= 173
 cap_49: t_49_49 + t_49_117 + t_49_152 + t_49_199 + t_49_204 + t_49_208
   + t_49_245 + t_49_251 + t_49_259 >= 484
 cap_50: t_50_50 + t_50_111 + t_50_118 + t_50_126 + t_50_153 + t_50_169
   + t_50_200 + t_50_232 + t_50_239 + t_50_252 + t_50_259 >= 645
 cap_51: t_51_51 + t_51_259 >= -2
 cap_52: t_52_52 + t_52_112 + t_52_127 + t_52_170 + t_52_192 + t_52_214
   + t_52_233 + t_52_240 + t_52_259 >= 299
 cap_53: t_53_53 + t_53_119 + t_53_154 + t_53_201 + t_53_205 + t_53_209
   + t_53_246 + t_53_253 + t_53_259 >= 603
 cap_54: t_54_54 + t_54_113 + t_54_120 + t_54_128 + t_54_155 + t_54_171
   + t_54_193 + t_54_202 + t_54_215 + t_54_234 + t_54_241 + t_54_254
   + t_54_259 >= 574
 cap_55: t_55_55 + t_55_101 + t_55_144 + t_55_187 + t_55_259 >= 122
 cap_56: t_56_56 + t_56_105 + t_56_114 + t_56_129 + t_56_147 + t_56_161
   + t_56_172 + t_56_194 + t_56_220 + t_56_258 + t_56_259 >= 884
 cap_57: t_57_57 + t_57_131 + t_57_165 + t_57_177 + t_57_226 + t_57_259
   >= 168
 cap_58: t_58_58 + t_58_102 + t_58_188 + t_58_259 >= 142
 cap_59: t_59_59 + t_59_115 + t_59_130 + t_59_156 + t_59_173 + t_59_195
   + t_59_216 + t_59_235 + t_59_242 + t_59_259 >= 459
 cap_60: t_60_60 + t_60_124 + t_60_132 + t_60_166 + t_60_178 + t_60_227
   + t_60_259 >= 512
 cap_61: t_61_61 + t_61_179 + t_61_180 + t_61_181 + t_61_182 + t_61_183
   + t_61_184 + t_61_185 + t_61_186 + t_61_187 + t_61_188 + t_61_259
   >= 414
 cap_62: t_62_62 + t_62_189 + t_62_190 + t_62_191 + t_62_192 + t_62_193
   + t_62_194 + t_62_195 + t_62_259 >= 471
 cap_63: t_63_63 + t_63_259 >= -40
 cap_64: t_64_64 + t_64_196 + t_64_197 + t_64_198 + t_64_199 + t_64_200
   + t_64_201 + t_64_202 + t_64_259 >= 215
 cap_65: t_65_65 + t_65_203 + t_65_204 + t_65_205 + t_65_259 >= 62
 cap_66: t_66_66 + t_66_259 >= 0
 cap_67: t_67_67 + t_67_259 >= -12
 cap_68: t_68_68 + t_68_259 >= -23
 cap_69: t_69_69 + t_69_259 >= -8
 cap_70: t_70_70 + t_70_259 >= -21
 cap_71: t_71_71 + t_71_259 >= -20
 cap_72: t_72_72 + t_72_259 >= -36
 cap_73: t_73_73 + t_73_259 >= -14
 cap_74: t_74_74 + t_74_206 + t_74_207 + t_74_208 + t_74_209 + t_74_259
   >= 295
 cap_75: t_75_75 + t_75_259 >= -46
 cap_76: t_76_76 + t_76_210 + t_76_211 + t_76_212 + t_76_213 + t_76_214
   + t_76_215 + t_76_216 + t_76_259 >= 736
 cap_77: t_77_77 + t_77_259 >= -44
 cap_78: t_78_78 + t_78_259 >= 44
 cap_79: t_79_79 + t_79_259 >= 43
 cap_80: t_80_80 + t_80_259 >= -30
 cap_81: t_81_81 + t_81_259 >= -11
 cap_82: t_82_82 + t_82_259 >= 27
 cap_83: t_83_83 + t_83_259 >= -43
 cap_84: t_84_84 + t_84_217 + t_84_218 + t_84_219 + t_84_220 + t_84_259
   >= 458
 cap_85: t_85_85 + t_85_221 + t_85_259 >= 183
 cap_86: t_86_86 + t_86_222 + t_86_223 + t_86_224 + t_86_225 + t_86_226
   + t_86_227 + t_86_259 >= 711
 cap_87: t_87_87 + t_87_259 >= -2
 cap_88: t_88_88 + t_88_259 >= -32
 cap_89: t_89_89 + t_89_228 + t_89_229 + t_89_230 + t_89_231 + t_89_232
   + t_89_233 + t_89_234 + t_89_235 + t_89_259 >= 474
 cap_90: t_90_90 + t_90_236 + t_90_237 + t_90_238 + t_90_239 + t_90_240
   + t_90_241 + t_90_242 + t_90_259 >= 753
 cap_91: t_91_91 + t_91_243 + t_91_244 + t_91_245 + t_91_246 + t_91_259
   >= 338
 cap_92: t_92_92 + t_92_247 + t_92_248 + t_92_249 + t_92_250 + t_92_251
   + t_92_252 + t_92_253 + t_92_254 + t_92_259 >= 255
 cap_93: t_93_93 + t_93_255 + t_93_256 + t_93_257 + t_93_258 + t_93_259
   >= 398
 demand_0: t_0_0 <= 44
 demand_1: t_1_1 <= 38
 demand_2: t_2_2 <= 57
 demand_3: t_3_3 <= 52
 demand_4: t_4_4 <= 23
 demand_5: t_5_5 <= 48
 demand_6: t_6_6 <= 48
 demand_7: t_7_7 <= 29
 demand_8: t_8_8 <= 80
 demand_9: t_9_9 <= 11
 demand_10: t_10_10 <= 76
 demand_11: t_11_11 <= 36
 demand_12: t_12_12 <= 30
 demand_13: t_13_13 <= 24
 demand_14: t_14_14 <= 32
 demand_15: t_15_15 <= 33
 demand_16: t_16_16 <= 29
 demand_17: t_17_17 <= 7
 demand_18: t_18_18 <= 32
 demand_19: t_19_19 <= 197
 demand_20: t_20_20 <= 2
 demand_21: t_21_21 <= 57
 demand_22: t_22_22 <= 66
 demand_23: t_23_23 <= 10
 demand_24: t_24_24 <= 28
 demand_25: t_25_25 <= 57
 demand_26: t_26_26 <= 45
 demand_27: t_27_27 <= 59
 demand_28: t_28_28 <= 41
 demand_29: t_29_29 <= 68
 demand_30: t_30_30 <= 68
 demand_31: t_31_31 <= 8
 demand_32: t_32_32 <= 71
 demand_33: t_33_33 <= 31
 demand_34: t_34_34 <= 15
 demand_35: t_35_35 <= 5
 demand_36: t_36_36 <= 17
 demand_37: t_37_37 <= 67
 demand_38: t_38_38 <= 63
 demand_39: t_39_39 <= 54
 demand_40: t_40_40 <= 60
 demand_41: t_41_41 <= 40
 demand_42: t_42_42 <= 58
 demand_43: t_43_43 <= 2
 demand_44: t_44_44 <= 22
 demand_45: t_45_45 <= 57
 demand_46: t_46_46 <= 53
 demand_47: t_47_47 <= 56
 demand_48: t_48_48 <= 69
 demand_49: t_49_49 <= 145
 demand_50: t_50_50 <= 2
 demand_51: t_51_51 <= 68
 demand_52: t_52_52 <= 27
 demand_53: t_53_53 <= 68
 demand_54: t_54_54 <= 68
 demand_55: t_55_55 <= 36
 demand_56: t_56_56 <= 43
 demand_57: t_57_57 <= 117
 demand_58: t_58_58 <= 68
 demand_59: t_59_59 <= 52
 demand_60: t_60_60 <= 67
 demand_61: t_61_61 <= 61
 demand_62: t_62_62 <= 25
 demand_63: t_63_63 <= 5
 demand_64: t_64_64 <= 83
 demand_65: t_65_65 <= 17
 demand_66: t_66_66 <= 45
 demand_67: t_67_67 <= 33
 demand_68: t_68_68 <= 22
 demand_69: t_69_69 <= 37
 demand_70: t_70_70 <= 24
 demand_71: t_71_71 <= 25
 demand_72: t_72_72 <= 9
 demand_73: t_73_73 <= 56
 demand_74: t_74_74 <= 69
 demand_75: t_75_75 <= 24
 demand_76: t_76_76 <= 123
 demand_77: t_77_77 <= 1
 demand_78: t_78_78 <= 89
 demand_79: t_79_79 <= 88
 demand_80: t_80_80 <= 15
 demand_81: t_81_81 <= 34
 demand_82: t_82_82 <= 72
 demand_83: t_83_83 <= 2
 demand_84: t_84_84 <= 68
 demand_85: t_85_85 <= 28
 demand_86: t_86_86 <= 67
 demand_87: t_87_87 <= 68
 demand_88: t_88_88 <= 38
 demand_89: t_89_89 <= 25
 demand_90: t_90_90 <= 71
 demand_91: t_91_91 <= 129
 demand_92: t_92_92 <= 52
 demand_93: t_93_93 <= 67
 demand_94: t_0_94 + t_36_94 <= 199
 demand_95: t_0_95 + t_37_95 <= 31
 demand_96: t_0_96 + t_38_96 <= 26
 demand_97: t_0_97 + t_40_97 <= 31
 demand_98: t_0_98 + t_44_98 <= 18
 demand_99: t_0_99 + t_46_99 <= 24
 demand_100: t_0_100 + t_47_100 <= 124
 demand_101: t_0_101 + t_55_101 <= 65
 demand_102: t_0_102 + t_58_102 <= 91
 demand_103: t_1_103 + t_42_103 <= 15
 demand_104: t_1_104 + t_45_104 <= 10
 demand_105: t_1_105 + t_56_105 <= 1
 demand_106: t_2_106 + t_42_106 <= 13
 demand_107: t_2_107 + t_45_107 <= 3
 demand_108: t_2_108 + t_48_108 <= 33
 demand_109: t_3_109 + t_48_109 <= 31
 demand_110: t_4_110 + t_41_110 <= 62
 demand_111: t_4_111 + t_50_111 <= 108
 demand_112: t_4_112 + t_52_112 <= 63
 demand_113: t_4_113 + t_54_113 <= 64
 demand_114: t_4_114 + t_56_114 <= 115
 demand_115: t_4_115 + t_59_115 <= 17
 demand_116: t_5_116 + t_41_116 <= 260
 demand_117: t_5_117 + t_49_117 <= 70
 demand_118: t_5_118 + t_50_118 <= 55
 demand_119: t_5_119 + t_53_119 <= 323
 demand_120: t_5_120 + t_54_120 <= 18
 demand_121: t_6_121 + t_45_121 <= 16
 demand_122: t_6_122 + t_48_122 <= 11
 demand_123: t_7_123 + t_48_123 <= 11
 demand_124: t_7_124 + t_60_124 <= 140
 demand_125: t_8_125 + t_41_125 <= 125
 demand_126: t_8_126 + t_50_126 <= 32
 demand_127: t_8_127 + t_52_127 <= 121
 demand_128: t_8_128 + t_54_128 <= 67
 demand_129: t_8_129 + t_56_129 <= 43
 demand_130: t_8_130 + t_59_130 <= 75
 demand_131: t_9_131 + t_57_131 <= 10
 demand_132: t_9_132 + t_60_132 <= 142
 demand_133: t_10_133 + t_48_133 <= 26
 demand_134: t_11_134 + t_45_134 <= 29
 demand_135: t_11_135 + t_48_135 <= 53
 demand_136: t_12_136 + t_42_136 <= 15
 demand_137: t_12_137 + t_45_137 <= 16
 demand_138: t_12_138 + t_48_138 <= 9
 demand_139: t_13_139 + t_37_139 <= 154
 demand_140: t_13_140 + t_38_140 <= 92
 demand_141: t_13_141 + t_44_141 <= 34
 demand_142: t_13_142 + t_46_142 <= 11
 demand_143: t_13_143 + t_47_143 <= 103
 demand_144: t_13_144 + t_55_144 <= 41
 demand_145: t_14_145 + t_42_145 <= 36
 demand_146: t_14_146 + t_45_146 <= 36
 demand_147: t_14_147 + t_56_147 <= 54
 demand_148: t_15_148 + t_21_148 <= 5
 demand_149: t_15_149 + t_28_149 <= 129
 demand_150: t_15_150 + t_30_150 <= 121
 demand_151: t_15_151 + t_32_151 <= 116
 demand_152: t_15_152 + t_49_152 <= 82
 demand_153: t_15_153 + t_50_153 <= 22
 demand_154: t_15_154 + t_53_154 <= 98
 demand_155: t_15_155 + t_54_155 <= 77
 demand_156: t_15_156 + t_59_156 <= 39
 demand_157: t_16_157 + t_25_157 <= 108
 demand_158: t_16_158 + t_35_158 <= 70
 demand_159: t_16_159 + t_42_159 <= 10
 demand_160: t_16_160 + t_45_160 <= 217
 demand_161: t_16_161 + t_56_161 <= 153
 demand_162: t_17_162 + t_23_162 <= 3
 demand_163: t_17_163 + t_24_163 <= 21
 demand_164: t_17_164 + t_29_164 <= 32
 demand_165: t_17_165 + t_57_165 <= 1
 demand_166: t_17_166 + t_60_166 <= 23
 demand_167: t_19_167 + t_21_167 <= 43
 demand_168: t_19_168 + t_30_168 <= 73
 demand_169: t_19_169 + t_50_169 <= 88
 demand_170: t_19_170 + t_52_170 <= 25
 demand_171: t_19_171 + t_54_171 <= 0
 demand_172: t_19_172 + t_56_172 <= 78
 demand_173: t_19_173 + t_59_173 <= 4
 demand_174: t_20_174 + t_23_174 <= 123
 demand_175: t_20_175 + t_24_175 <= 128
 demand_176: t_20_176 + t_29_176 <= 3
 demand_177: t_20_177 + t_57_177 <= 14
 demand_178: t_20_178 + t_60_178 <= 53
 demand_179: t_27_179 + t_61_179 <= 20
 demand_180: t_31_180 + t_61_180 <= 27
 demand_181: t_33_181 + t_61_181 <= 12
 demand_182: t_34_182 + t_61_182 <= 44
 demand_183: t_37_183 + t_61_183 <= 75
 demand_184: t_38_184 + t_61_184 <= 4
 demand_185: t_40_185 + t_61_185 <= 53
 demand_186: t_47_186 + t_61_186 <= 60
 demand_187: t_55_187 + t_61_187 <= 50
 demand_188: t_58_188 + t_61_188 <= 53
 demand_189: t_21_189 + t_62_189 <= 23
 demand_190: t_30_190 + t_62_190 <= 50
 demand_191: t_41_191 + t_62_191 <= 94
 demand_192: t_52_192 + t_62_192 <= 26
 demand_193: t_54_193 + t_62_193 <= 27
 demand_194: t_56_194 + t_62_194 <= 221
 demand_195: t_59_195 + t_62_195 <= 50
 demand_196: t_21_196 + t_64_196 <= 4
 demand_197: t_28_197 + t_64_197 <= 44
 demand_198: t_32_198 + t_64_198 <= 14
 demand_199: t_49_199 + t_64_199 <= 13
 demand_200: t_50_200 + t_64_200 <= 49
 demand_201: t_53_201 + t_64_201 <= 37
 demand_202: t_54_202 + t_64_202 <= 16
 demand_203: t_32_203 + t_65_203 <= 42
 demand_204: t_49_204 + t_65_204 <= 43
 demand_205: t_53_205 + t_65_205 <= 5
 demand_206: t_28_206 + t_74_206 <= 94
 demand_207: t_32_207 + t_74_207 <= 83
 demand_208: t_49_208 + t_74_208 <= 75
 demand_209: t_53_209 + t_74_209 <= 44
 demand_210: t_21_210 + t_76_210 <= 82
 demand_211: t_28_211 + t_76_211 <= 99
 demand_212: t_30_212 + t_76_212 <= 84
 demand_213: t_41_213 + t_76_213 <= 193
 demand_214: t_52_214 + t_76_214 <= 77
 demand_215: t_54_215 + t_76_215 <= 58
 demand_216: t_59_216 + t_76_216 <= 90
 demand_217: t_35_217 + t_84_217 <= 200
 demand_218: t_42_218 + t_84_218 <= 73
 demand_219: t_45_219 + t_84_219 <= 27
 demand_220: t_56_220 + t_84_220 <= 160
 demand_221: t_32_221 + t_85_221 <= 225
 demand_222: t_24_222 + t_86_222 <= 166
 demand_223: t_27_223 + t_86_223 <= 116
 demand_224: t_39_224 + t_86_224 <= 124
 demand_225: t_47_225 + t_86_225 <= 55
 demand_226: t_57_226 + t_86_226 <= 96
 demand_227: t_60_227 + t_86_227 <= 157
 demand_228: t_21_228 + t_89_228 <= 65
 demand_229: t_28_229 + t_89_229 <= 56
 demand_230: t_30_230 + t_89_230 <= 91
 demand_231: t_41_231 + t_89_231 <= 52
 demand_232: t_50_232 + t_89_232 <= 189
 demand_233: t_52_233 + t_89_233 <= 17
 demand_234: t_54_234 + t_89_234 <= 3
 demand_235: t_59_235 + t_89_235 <= 46
 demand_236: t_21_236 + t_90_236 <= 64
 demand_237: t_30_237 + t_90_237 <= 21
 demand_238: t_41_238 + t_90_238 <= 194
 demand_239: t_50_239 + t_90_239 <= 118
 demand_240: t_52_240 + t_90_240 <= 13
 demand_241: t_54_241 + t_90_241 <= 186
 demand_242: t_59_242 + t_90_242 <= 156
 demand_243: t_28_243 + t_91_243 <= 85
 demand_244: t_32_244 + t_91_244 <= 40
 demand_245: t_49_245 + t_91_245 <= 89
 demand_246: t_53_246 + t_91_246 <= 65
 demand_247: t_21_247 + t_92_247 <= 29
 demand_248: t_28_248 + t_92_248 <= 11
 demand_249: t_30_249 + t_92_249 <= 25
 demand_250: t_32_250 + t_92_250 <= 26
 demand_251: t_49_251 + t_92_251 <= 37
 demand_252: t_50_252 + t_92_252 <= 52
 demand_253: t_53_253 + t_92_253 <= 33
 demand_254: t_54_254 + t_92_254 <= 60
 demand_255: t_35_255 + t_93_255 <= 283
 demand_256: t_42_256 + t_93_256 <= 13
 demand_257: t_45_257 + t_93_257 <= 19
 demand_258: t_56_258 + t_93_258 <= 86
Bounds
End
